(set-logic QF_BV)
(declare-fun a0 () (_ BitVec 4))
(declare-fun a1 () (_ BitVec 4))
(declare-fun a2 () (_ BitVec 4))
(declare-fun a3 () (_ BitVec 4))
(declare-fun a4 () (_ BitVec 4))
(declare-fun a5 () (_ BitVec 4))
(declare-fun a6 () (_ BitVec 4))
(declare-fun a7 () (_ BitVec 4))
(assert (bvult a0 a3))
(assert (not (bvult a1 a3)))
(assert (bvult a3 a7))
(assert (not (bvult a3 a6)))
(assert (not (bvult a2 a3)))
(assert (not (bvult a3 a5)))
(assert (not (bvult a3 a4)))
(assert (bvult a0 a4))
(assert (bvult a6 a4))
(assert (bvult a5 a4))
(check-sat)
(exit)
